# Solution for model BargeScheduling
# Objective value = 1662
f_ck[0,0] 1
f_ck[0,1] 0
f_ck[0,2] 0
f_ck[1,0] 1
f_ck[1,1] 0
f_ck[1,2] 0
f_ck[2,0] 1
f_ck[2,1] 0
f_ck[2,2] 0
f_ck[3,0] 1
f_ck[3,1] 0
f_ck[3,2] 0
f_ck[4,0] 1
f_ck[4,1] 0
f_ck[4,2] 0
f_ck[5,0] 1
f_ck[5,1] 0
f_ck[5,2] 0
f_ck[6,0] 1
f_ck[6,1] 0
f_ck[6,2] 0
f_ck[7,0] 1
f_ck[7,1] 0
f_ck[7,2] 0
x_ijk[0,1,0] 0
x_ijk[0,1,1] 0
x_ijk[0,2,0] 1
x_ijk[0,2,1] 0
x_ijk[0,3,0] 0
x_ijk[0,3,1] 0
x_ijk[0,4,0] 0
x_ijk[0,4,1] 0
x_ijk[0,5,0] 0
x_ijk[0,5,1] 0
x_ijk[0,6,0] 0
x_ijk[0,6,1] 0
x_ijk[1,0,0] 1
x_ijk[1,0,1] 0
x_ijk[1,2,0] 0
x_ijk[1,2,1] 0
x_ijk[1,3,0] 0
x_ijk[1,3,1] 0
x_ijk[1,4,0] 0
x_ijk[1,4,1] 0
x_ijk[1,5,0] 0
x_ijk[1,5,1] 0
x_ijk[1,6,0] 0
x_ijk[1,6,1] 0
x_ijk[2,0,0] 0
x_ijk[2,0,1] 0
x_ijk[2,1,0] 0
x_ijk[2,1,1] 0
x_ijk[2,3,0] 0
x_ijk[2,3,1] 0
x_ijk[2,4,0] 1
x_ijk[2,4,1] 0
x_ijk[2,5,0] 0
x_ijk[2,5,1] 0
x_ijk[2,6,0] 0
x_ijk[2,6,1] 0
x_ijk[3,0,0] 0
x_ijk[3,0,1] 0
x_ijk[3,1,0] 0
x_ijk[3,1,1] 0
x_ijk[3,2,0] 0
x_ijk[3,2,1] 0
x_ijk[3,4,0] 0
x_ijk[3,4,1] 0
x_ijk[3,5,0] 0
x_ijk[3,5,1] 0
x_ijk[3,6,0] 0
x_ijk[3,6,1] 0
x_ijk[4,0,0] 0
x_ijk[4,0,1] 0
x_ijk[4,1,0] 0
x_ijk[4,1,1] 0
x_ijk[4,2,0] 0
x_ijk[4,2,1] 0
x_ijk[4,3,0] 0
x_ijk[4,3,1] 0
x_ijk[4,5,0] 1
x_ijk[4,5,1] 0
x_ijk[4,6,0] 0
x_ijk[4,6,1] 0
x_ijk[5,0,0] 0
x_ijk[5,0,1] 0
x_ijk[5,1,0] 0
x_ijk[5,1,1] 0
x_ijk[5,2,0] 0
x_ijk[5,2,1] 0
x_ijk[5,3,0] 0
x_ijk[5,3,1] 0
x_ijk[5,4,0] 0
x_ijk[5,4,1] 0
x_ijk[5,6,0] 1
x_ijk[5,6,1] 0
x_ijk[6,0,0] 0
x_ijk[6,0,1] 0
x_ijk[6,1,0] 1
x_ijk[6,1,1] 0
x_ijk[6,2,0] 0
x_ijk[6,2,1] 0
x_ijk[6,3,0] 0
x_ijk[6,3,1] 0
x_ijk[6,4,0] 0
x_ijk[6,4,1] 0
x_ijk[6,5,0] 0
x_ijk[6,5,1] 0
p_jk[0,0] 0
p_jk[0,1] 0
p_jk[1,0] 2
p_jk[1,1] 0
p_jk[2,0] 1
p_jk[2,1] 0
p_jk[3,0] 0
p_jk[3,1] 0
p_jk[4,0] 1
p_jk[4,1] 0
p_jk[5,0] 1
p_jk[5,1] 0
p_jk[6,0] 0
p_jk[6,1] 0
d_jk[0,0] 0
d_jk[0,1] 0
d_jk[1,0] 0
d_jk[1,1] 0
d_jk[2,0] 1
d_jk[2,1] 0
d_jk[3,0] 0
d_jk[3,1] 0
d_jk[4,0] 2
d_jk[4,1] 0
d_jk[5,0] 2
d_jk[5,1] 0
d_jk[6,0] 1
d_jk[6,1] 0
y_ijk[0,0,0] 0
y_ijk[0,0,1] 0
y_ijk[0,1,0] 0
y_ijk[0,1,1] 0
y_ijk[0,2,0] 0
y_ijk[0,2,1] 0
y_ijk[0,3,0] 0
y_ijk[0,3,1] 0
y_ijk[0,4,0] 0
y_ijk[0,4,1] 0
y_ijk[0,5,0] 0
y_ijk[0,5,1] 0
y_ijk[0,6,0] 0
y_ijk[0,6,1] 0
y_ijk[1,0,0] 5
y_ijk[1,0,1] 0
y_ijk[1,1,0] 0
y_ijk[1,1,1] 0
y_ijk[1,2,0] 0
y_ijk[1,2,1] 0
y_ijk[1,3,0] 0
y_ijk[1,3,1] 0
y_ijk[1,4,0] 0
y_ijk[1,4,1] 0
y_ijk[1,5,0] 0
y_ijk[1,5,1] 0
y_ijk[1,6,0] 0
y_ijk[1,6,1] 0
y_ijk[2,0,0] 0
y_ijk[2,0,1] 0
y_ijk[2,1,0] 0
y_ijk[2,1,1] 0
y_ijk[2,2,0] 0
y_ijk[2,2,1] 0
y_ijk[2,3,0] 0
y_ijk[2,3,1] 0
y_ijk[2,4,0] 1
y_ijk[2,4,1] 0
y_ijk[2,5,0] 0
y_ijk[2,5,1] 0
y_ijk[2,6,0] 0
y_ijk[2,6,1] 0
y_ijk[3,0,0] 0
y_ijk[3,0,1] 0
y_ijk[3,1,0] 0
y_ijk[3,1,1] 0
y_ijk[3,2,0] 0
y_ijk[3,2,1] 0
y_ijk[3,3,0] 0
y_ijk[3,3,1] 0
y_ijk[3,4,0] 0
y_ijk[3,4,1] 0
y_ijk[3,5,0] 0
y_ijk[3,5,1] 0
y_ijk[3,6,0] 0
y_ijk[3,6,1] 0
y_ijk[4,0,0] 0
y_ijk[4,0,1] 0
y_ijk[4,1,0] 0
y_ijk[4,1,1] 0
y_ijk[4,2,0] 0
y_ijk[4,2,1] 0
y_ijk[4,3,0] 0
y_ijk[4,3,1] 0
y_ijk[4,4,0] 0
y_ijk[4,4,1] 0
y_ijk[4,5,0] 2
y_ijk[4,5,1] 0
y_ijk[4,6,0] 0
y_ijk[4,6,1] 0
y_ijk[5,0,0] 0
y_ijk[5,0,1] 0
y_ijk[5,1,0] 0
y_ijk[5,1,1] 0
y_ijk[5,2,0] 0
y_ijk[5,2,1] 0
y_ijk[5,3,0] 0
y_ijk[5,3,1] 0
y_ijk[5,4,0] 0
y_ijk[5,4,1] 0
y_ijk[5,5,0] 0
y_ijk[5,5,1] 0
y_ijk[5,6,0] 3
y_ijk[5,6,1] 0
y_ijk[6,0,0] 0
y_ijk[6,0,1] 0
y_ijk[6,1,0] 3
y_ijk[6,1,1] 0
y_ijk[6,2,0] 0
y_ijk[6,2,1] 0
y_ijk[6,3,0] 0
y_ijk[6,3,1] 0
y_ijk[6,4,0] 0
y_ijk[6,4,1] 0
y_ijk[6,5,0] 0
y_ijk[6,5,1] 0
y_ijk[6,6,0] 0
y_ijk[6,6,1] 0
z_ijk[0,0,0] 0
z_ijk[0,0,1] 0
z_ijk[0,1,0] 0
z_ijk[0,1,1] 0
z_ijk[0,2,0] 9
z_ijk[0,2,1] 0
z_ijk[0,3,0] 0
z_ijk[0,3,1] 0
z_ijk[0,4,0] 0
z_ijk[0,4,1] 0
z_ijk[0,5,0] 0
z_ijk[0,5,1] 0
z_ijk[0,6,0] 0
z_ijk[0,6,1] 0
z_ijk[1,0,0] 3
z_ijk[1,0,1] 0
z_ijk[1,1,0] 0
z_ijk[1,1,1] 0
z_ijk[1,2,0] 0
z_ijk[1,2,1] 0
z_ijk[1,3,0] 0
z_ijk[1,3,1] 0
z_ijk[1,4,0] 0
z_ijk[1,4,1] 0
z_ijk[1,5,0] 0
z_ijk[1,5,1] 0
z_ijk[1,6,0] 0
z_ijk[1,6,1] 0
z_ijk[2,0,0] 0
z_ijk[2,0,1] 0
z_ijk[2,1,0] 0
z_ijk[2,1,1] 0
z_ijk[2,2,0] 0
z_ijk[2,2,1] 0
z_ijk[2,3,0] 0
z_ijk[2,3,1] 0
z_ijk[2,4,0] 8
z_ijk[2,4,1] 0
z_ijk[2,5,0] 0
z_ijk[2,5,1] 0
z_ijk[2,6,0] 0
z_ijk[2,6,1] 0
z_ijk[3,0,0] 0
z_ijk[3,0,1] 0
z_ijk[3,1,0] 0
z_ijk[3,1,1] 0
z_ijk[3,2,0] 0
z_ijk[3,2,1] 0
z_ijk[3,3,0] 0
z_ijk[3,3,1] 0
z_ijk[3,4,0] 0
z_ijk[3,4,1] 0
z_ijk[3,5,0] 0
z_ijk[3,5,1] 0
z_ijk[3,6,0] 0
z_ijk[3,6,1] 0
z_ijk[4,0,0] 0
z_ijk[4,0,1] 0
z_ijk[4,1,0] 0
z_ijk[4,1,1] 0
z_ijk[4,2,0] 0
z_ijk[4,2,1] 0
z_ijk[4,3,0] 0
z_ijk[4,3,1] 0
z_ijk[4,4,0] 0
z_ijk[4,4,1] 0
z_ijk[4,5,0] 6
z_ijk[4,5,1] 0
z_ijk[4,6,0] 0
z_ijk[4,6,1] 0
z_ijk[5,0,0] 0
z_ijk[5,0,1] 0
z_ijk[5,1,0] 0
z_ijk[5,1,1] 0
z_ijk[5,2,0] 0
z_ijk[5,2,1] 0
z_ijk[5,3,0] 0
z_ijk[5,3,1] 0
z_ijk[5,4,0] 0
z_ijk[5,4,1] 0
z_ijk[5,5,0] 0
z_ijk[5,5,1] 0
z_ijk[5,6,0] 4
z_ijk[5,6,1] 0
z_ijk[6,0,0] 0
z_ijk[6,0,1] 0
z_ijk[6,1,0] 3
z_ijk[6,1,1] 0
z_ijk[6,2,0] 0
z_ijk[6,2,1] 0
z_ijk[6,3,0] 0
z_ijk[6,3,1] 0
z_ijk[6,4,0] 0
z_ijk[6,4,1] 0
z_ijk[6,5,0] 0
z_ijk[6,5,1] 0
z_ijk[6,6,0] 0
z_ijk[6,6,1] 0
t_jk[0,0] 5.0666666666666664e+01
t_jk[0,1] 987
t_jk[1,0] 1.0283333333333333e+02
t_jk[1,1] 984
t_jk[2,0] 6.1666666666666664e+01
t_jk[2,1] 984
t_jk[3,0] 0
t_jk[3,1] 115
t_jk[4,0] 66
t_jk[4,1] 114
t_jk[5,0] 7.0333333333333329e+01
t_jk[5,1] 114
t_jk[6,0] 8.6666666666666671e+01
t_jk[6,1] 82
